5
24
0 46 62 5 48 89 9 83 71 20 73 58 16 14 10 31 44 90 97 22 76 59 61 34
16
0 91 7 41 55 79 30 88 53 39 63 1 43 67 84 38
20
0 74 18 96 3 64 25 65 69 21 93 15 87 52 78 17 23 37 35 98
26
0 92 27 57 60 50 86 8 6 56 19 85 26 11 54 82 33 28 45 42 2 13 47 99 70 40
18
0 66 24 80 68 72 49 81 94 12 75 32 36 4 51 77 95 29
